
******************************************************************************
This program contains Ipopt, a library for large-scale nonlinear optimization.
 Ipopt is released as open source code under the Eclipse Public License (EPL).
         For more information visit http://projects.coin-or.org/Ipopt
******************************************************************************

This is Ipopt version 3.12.6, running with linear solver ma57.

Number of nonzeros in equality constraint Jacobian...:        0
Number of nonzeros in inequality constraint Jacobian.:        0
Number of nonzeros in Lagrangian Hessian.............:     8999

Total number of variables............................:     3000
                     variables with only lower bounds:        0
                variables with lower and upper bounds:        0
                     variables with only upper bounds:        0
Total number of equality constraints.................:        0
Total number of inequality constraints...............:        0
        inequality constraints with only lower bounds:        0
   inequality constraints with lower and upper bounds:        0
        inequality constraints with only upper bounds:        0

iter    objective    inf_pr   inf_du lg(mu)  ||d||  lg(rg) alpha_du alpha_pr  ls
   0  1.5860356e+05 0.00e+00 1.00e+02  -1.0 0.00e+00    -  0.00e+00 0.00e+00   0
   1  6.9627886e+04 0.00e+00 4.90e+01  -1.0 3.34e-01   2.0 1.00e+00 1.00e+00f  1
   2  2.7307125e+04 0.00e+00 2.13e+01  -1.0 3.73e-01   1.5 1.00e+00 1.00e+00f  1
   3  1.0271070e+04 0.00e+00 8.62e+00  -1.0 3.58e-01   1.0 1.00e+00 1.00e+00f  1
   4  3.8520959e+03 0.00e+00 3.31e+00  -1.0 4.39e-01   0.6 1.00e+00 1.00e+00f  1
   5  1.3822458e+03 0.00e+00 1.34e+00  -1.0 5.72e-01   0.1 1.00e+00 1.00e+00f  1
   6  3.0747107e+02 0.00e+00 5.21e-01  -1.0 3.87e-01    -  1.00e+00 1.00e+00f  1
   7  1.0739171e+01 0.00e+00 1.04e-01  -1.7 2.96e-01    -  1.00e+00 1.00e+00f  1
   8  1.0003497e+00 0.00e+00 7.66e-04  -2.5 7.90e-02    -  1.00e+00 1.00e+00f  1
   9  1.0000000e+00 0.00e+00 2.63e-10  -5.7 5.89e-04    -  1.00e+00 1.00e+00f  1

Number of Iterations....: 9

                                   (scaled)                 (unscaled)
Objective...............:   6.5036420395421435e-01    1.0000000000000000e+00
Dual infeasibility......:   2.6272711796629563e-10    4.0396921658497620e-10
Constraint violation....:   0.0000000000000000e+00    0.0000000000000000e+00
Complementarity.........:   0.0000000000000000e+00    0.0000000000000000e+00
Overall NLP error.......:   2.6272711796629563e-10    4.0396921658497620e-10


Number of objective function evaluations             = 10
Number of objective gradient evaluations             = 10
Number of equality constraint evaluations            = 0
Number of inequality constraint evaluations          = 0
Number of equality constraint Jacobian evaluations   = 0
Number of inequality constraint Jacobian evaluations = 0
Number of Lagrangian Hessian evaluations             = 9
Total CPU secs in IPOPT (w/o function evaluations)   =      0.037
Total CPU secs in NLP function evaluations           =      0.010

EXIT: Optimal Solution Found.
Note: The following floating-point exceptions are signalling: IEEE_UNDERFLOW_FLAG IEEE_DENORMAL

 ** SUBROUTINE CUTEST_csetup: Warning. The problem has no general constraints. 
 ** Other tools may be preferable ** 

************************ CUTEst statistics ************************


 Package used            :  IPOPT
 Problem                 :  DIXMAAND  
 # variables             =            3000
 # constraints           =               0
 # objective functions   =        0.2100000E+02
 # objective gradients   =        0.1100000E+02
 # objective Hessians    =        0.1000000E+02
 # Hessian-vector prdct  =        0.0000000E+00
 # constraints functions =        0.0000000E+00
 # constraints gradients =        0.0000000E+00
 # constraints Hessians  =        0.0000000E+00
 Exit code               =               0
 Final f                 =   0.1000000E+01
 Set up time             =            0.05 seconds
 Solve time              =            0.15 seconds


******************************************************************

System Time =       0.0359999985 s.
